12      4       
12      11      11      12      
0       0       0       0       0       4       2       3       4       5       
4       5       3       7       8       2       10      11      
3       4       1       1       3       3       6       7       10      
9       2       3       5       4       1       7       
4       3       7       1       4       1       11      
4       4       4       5       10      1       9       
2       5       9       8       6       1       8       
10      10      1       1       8       1       12      
9       7       3       2       10      1       12      
2       8       5       1       4       1       12      
2       3       4       3       7       1       12      
0       0       0       0       0       0       
